data/solutions/recovery/degenerate/moderate/flexible/degenerate_moderate_instance4/31.sol
Elapsed time: 0.04
Upper bound: 6166633.0
Planning weighted value: 27488824.0
C[0]=6166633.0
C[1]=6166189.0
C[2]=0.0
y[0]=1
y[1]=1
y[2]=1
y[3]=1
y[4]=0
y[5]=0
y[6]=0
y[7]=1
y[8]=0
y[9]=0
y[10]=1
y[11]=1
y[12]=0
y[13]=1
y[14]=1
y[15]=1
y[16]=1
y[17]=1
y[18]=1
y[19]=0
y[20]=0
y[21]=0
y[22]=1
y[23]=0
y[24]=1
