data/solutions/recovery/degenerate/moderate/flexible/degenerate_moderate_instance4/31.log

Log started (V12.6.3.0) Sat Apr 21 11:01:52 2018

New value for default parallel thread count: 1

Problem '/tmp/tmpWF43Iv.pyomo.lp' read.
Read time = 0.00 sec. (0.02 ticks)

Problem name         : /tmp/tmpWF43Iv.pyomo.lp
Objective sense      : Minimize
Variables            :      80  [Nneg: 1,  Binary: 75,  General Integer: 4]
Objective nonzeros   :       1
Linear constraints   :      58  [Less: 28,  Equal: 30]
  Nonzeros           :    1126
  RHS nonzeros       :      51

Variables            : Min LB: 0.000000         Max UB: 1.000000       
Objective nonzeros   : Min   : 1.000000         Max   : 1.000000       
Linear constraints   :
  Nonzeros           : Min   : 1.000000         Max   : 1072398.       
  RHS nonzeros       : Min   : 1.000000         Max   : 3.000000       
Tried aggregator 2 times.
MIP Presolve eliminated 28 rows and 30 columns.
MIP Presolve added 1 rows and 1 columns.
Aggregator did 27 substitutions.
Reduced MIP has 4 rows, 24 columns, and 65 nonzeros.
Reduced MIP has 22 binaries, 2 generals, 0 SOSs, and 0 indicators.
Presolve time = 0.00 sec. (0.25 ticks)
Found incumbent of value 1.2332822e+07 after 0.00 sec. (0.30 ticks)
Probing fixed 0 vars, tightened 4 bounds.
Probing time = 0.00 sec. (0.01 ticks)
Tried aggregator 1 time.
MIP Presolve eliminated 1 rows and 1 columns.
MIP Presolve added 1 rows and 1 columns.
Reduced MIP has 4 rows, 24 columns, and 65 nonzeros.
Reduced MIP has 22 binaries, 2 generals, 0 SOSs, and 0 indicators.
Presolve time = 0.00 sec. (0.03 ticks)
Probing time = 0.00 sec. (0.01 ticks)
MIP emphasis: balance optimality and feasibility.
MIP search method: dynamic search.
Parallel mode: none, using 1 thread.
Root relaxation solution time = 0.00 sec. (0.02 ticks)

        Nodes                                         Cuts/
   Node  Left     Objective  IInf  Best Integer    Best Bound    ItCnt     Gap

*     0+    0                       1.23328e+07  1072398.0000            91.30%
      0     0  6166411.0000     2   1.23328e+07  6166411.0000        2   50.00%
*     0+    0                      6345801.0000  6166411.0000             2.83%
      0     0  6166411.0000     1  6345801.0000      Fract: 1        4    2.83%
*     0+    0                      6208417.0000  6166411.0000             0.68%
      0     0  6166411.0000     4  6208417.0000    MIRcuts: 1        5    0.68%
*     0+    0                      6203762.0000  6166411.0000             0.60%
      0     0  6166411.0000     3  6203762.0000    MIRcuts: 3       10    0.60%
*     0+    0                      6194326.0000  6166411.0000             0.45%
      0     2  6166411.0000     3  6194326.0000  6166411.0000       10    0.45%
Elapsed time = 0.00 sec. (0.75 ticks, tree = 0.01 MB, solutions = 5)
*    20+   12                      6178827.0000  6166411.0000             0.20%
*    20+   12                      6172110.0000  6166411.0000             0.09%
*    28    20      integral     0  6167224.0000  6166411.0000       37    0.01%
*   488    62      integral     0  6166633.0000  6166411.0000      384    0.00%

Mixed integer rounding cuts applied:  2
Gomory fractional cuts applied:  1

Root node processing (before b&c):
  Real time             =    0.00 sec. (0.75 ticks)
Sequential b&c:
  Real time             =    0.01 sec. (2.79 ticks)
                          ------------
Total (root+branch&cut) =    0.01 sec. (3.54 ticks)

Solution pool: 9 solutions saved.

MIP - Integer optimal, tolerance (0.0001/1e-06):  Objective =  6.1666330000e+06
Current MIP best bound =  6.1664110000e+06 (gap = 222, 0.00%)
Solution time =    0.01 sec.  Iterations = 384  Nodes = 489 (62)
Deterministic time = 3.54 ticks  (286.29 ticks/sec)


Incumbent solution written to file '/tmp/tmpSBuzV5.cplex.sol'.
